(set-info :source |printed by MathSAT|)
(declare-fun call_mesi.ite23 () Int)
(declare-fun call_mesi.ite9.next () Int)
(declare-fun param_etat_me4.next () Bool)
(declare-fun call_mesi.ite27.next () Int)
(declare-fun exclusive_me.next () Int)
(declare-fun call_mesi.ite17 () Int)
(declare-fun call_mesi.modified_me.next () Int)
(declare-fun env () Bool)
(declare-fun call_Abs4.ite () Int)
(declare-fun call_mesi.flby.next () Int)
(declare-fun call_mesi.ite10.next () Int)
(declare-fun call_mesi.ite5 () Int)
(declare-fun call_mesi.ite12.next () Int)
(declare-fun call_Sofar.flby () Bool)
(declare-fun call_mesi.ite30 () Int)
(declare-fun call_mesi.ite6.next () Int)
(declare-fun call_mesi.ite2.next () Int)
(declare-fun call_mesi.flby3.next () Int)
(declare-fun param_etat_me2 () Bool)
(declare-fun call_Abs.Abs () Int)
(declare-fun call_mesi.ite18 () Int)
(declare-fun call_mesi.garde_me3.next () Bool)
(declare-fun call_Abs2.ite () Int)
(declare-fun call_mesi.ite29.next () Int)
(declare-fun call_mesi.ite25 () Int)
(declare-fun call_mesi.ite27 () Int)
(declare-fun call_mesi.ite11 () Int)
(declare-fun _OK_ () Bool)
(declare-fun shared_me () Int)
(declare-fun call_mesi.ite8 () Int)
(declare-fun call_Abs2.Abs.next () Int)
(declare-fun invalid_me.next () Int)
(declare-fun param_etat_me4 () Bool)
(declare-fun call_mesi.invalid_me () Int)
(declare-fun call_Abs.Abs.next () Int)
(declare-fun call_mesi.ite24 () Int)
(declare-fun call_mesi.ite3.next () Int)
(declare-fun call_mesi.flby3 () Int)
(declare-fun shared_me.next () Int)
(declare-fun call_mesi.ite5.next () Int)
(declare-fun param_etat_me1.next () Bool)
(declare-fun call_mesi.ite13.next () Int)
(declare-fun call_mesi.ite8.next () Int)
(declare-fun call_mesi.ite4.next () Int)
(declare-fun call_Abs3.ite () Int)
(declare-fun call_Abs2.Abs () Int)
(declare-fun call_mesi.flby () Int)
(declare-fun call_mesi.ite23.next () Int)
(declare-fun call_mesi.ite11.next () Int)
(declare-fun call_mesi.ite30.next () Int)
(declare-fun call_mesi.ite29 () Int)
(declare-fun call_excludes4.excludes () Bool)
(declare-fun call_mesi.ite32 () Int)
(declare-fun param_etat_me2.next () Bool)
(declare-fun call_mesi.ite20.next () Int)
(declare-fun call_mesi.ite16.next () Int)
(declare-fun call_mesi.ite21 () Int)
(declare-fun param_etat_me3.next () Bool)
(declare-fun call_mesi.ite25.next () Int)
(declare-fun call_excludes4.excludes.next () Bool)
(declare-fun call_Abs4.ite.next () Int)
(declare-fun call_mesi.garde_me4.next () Bool)
(declare-fun call_mesi.shared_me () Int)
(declare-fun call_mesi.ite3 () Int)
(declare-fun call_mesi.ite26 () Int)
(declare-fun call_mesi.ite7.next () Int)
(declare-fun call_Abs3.ite.next () Int)
(declare-fun call_mesi.ite31 () Int)
(declare-fun param_etat_me1 () Bool)
(declare-fun call_Abs3.Abs.next () Int)
(declare-fun call_Abs3.Abs () Int)
(declare-fun call_mesi.ite19 () Int)
(declare-fun call_mesi.ite16 () Int)
(declare-fun call_mesi.ite15.next () Int)
(declare-fun call_mesi.garde_me2.next () Bool)
(declare-fun call_mesi.garde_me1.next () Bool)
(declare-fun call_mesi.ite7 () Int)
(declare-fun call_mesi.ite2 () Int)
(declare-fun call_mesi.ite21.next () Int)
(declare-fun invalid_me () Int)
(declare-fun call_mesi.ite14.next () Int)
(declare-fun modified_me.next () Int)
(declare-fun call_Sofar.Sofar.next () Bool)
(declare-fun call_mesi.invalid_me.next () Int)
(declare-fun call_mesi.ite22 () Int)
(declare-fun call_mesi.ite15 () Int)
(declare-fun call_Abs4.Abs () Int)
(declare-fun call_mesi.ite13 () Int)
(declare-fun call_mesi.flby2.next () Int)
(declare-fun call_mesi.modified_me () Int)
(declare-fun call_mesi.ite17.next () Int)
(declare-fun call_mesi.flby4.next () Int)
(declare-fun call_mesi.ite6 () Int)
(declare-fun call_Sofar.Sofar () Bool)
(declare-fun _OK_.next () Bool)
(declare-fun call_Sofar.flby.next () Bool)
(declare-fun call_mesi.shared_me.next () Int)
(declare-fun call_mesi.ite18.next () Int)
(declare-fun call_mesi.flby4 () Int)
(declare-fun call_Abs2.ite.next () Int)
(declare-fun call_mesi.ite28.next () Int)
(declare-fun call_mesi.exclusive_me () Int)
(declare-fun call_mesi.ite22.next () Int)
(declare-fun call_mesi.ite19.next () Int)
(declare-fun env.next () Bool)
(declare-fun modified_me () Int)
(declare-fun call_mesi.ite31.next () Int)
(declare-fun call_Abs.ite () Int)
(declare-fun call_mesi.flby2 () Int)
(declare-fun call_mesi.ite9 () Int)
(declare-fun call_Abs.ite.next () Int)
(declare-fun call_mesi.ite24.next () Int)
(declare-fun param_etat_me3 () Bool)
(declare-fun call_mesi.ite.next () Int)
(declare-fun call_mesi.ite14 () Int)
(declare-fun call_Abs4.Abs.next () Int)
(declare-fun call_mesi.ite () Int)
(declare-fun call_mesi.ite32.next () Int)
(declare-fun call_mesi.ite26.next () Int)
(declare-fun call_mesi.exclusive_me.next () Int)
(declare-fun call_mesi.ite10 () Int)
(declare-fun exclusive_me () Int)
(define-fun .def_1373 () Bool (= call_Abs4.Abs.next call_Abs4.ite.next))
(define-fun .def_1371 () Bool (= call_Abs3.Abs.next call_Abs3.ite.next))
(define-fun .def_1369 () Bool (= call_Abs2.Abs.next call_Abs2.ite.next))
(define-fun .def_1367 () Bool (= call_Abs.Abs.next call_Abs.ite.next))
(define-fun .def_1365 () Bool (= call_Sofar.flby.next call_Sofar.Sofar.next))
(define-fun .def_1360 () Bool (and param_etat_me4.next param_etat_me3.next))
(define-fun .def_1358 () Bool (and param_etat_me4.next param_etat_me2.next))
(define-fun .def_1356 () Bool (and param_etat_me3.next param_etat_me2.next))
(define-fun .def_1352 () Bool (and param_etat_me2.next param_etat_me1.next))
(define-fun .def_1353 () Bool (and param_etat_me1.next .def_1352))
(define-fun .def_1354 () Bool (and param_etat_me3.next .def_1353))
(define-fun .def_1351 () Bool (and param_etat_me4.next param_etat_me1.next))
(define-fun .def_1355 () Bool (or .def_1351 .def_1354))
(define-fun .def_1357 () Bool (or .def_1355 .def_1356))
(define-fun .def_1359 () Bool (or .def_1357 .def_1358))
(define-fun .def_1361 () Bool (or .def_1359 .def_1360))
(define-fun .def_1362 () Bool (not .def_1361))
(define-fun .def_1363 () Bool (= call_excludes4.excludes.next .def_1362))
(define-fun .def_1349 () Bool (= call_mesi.flby4.next call_mesi.invalid_me.next))
(define-fun .def_1347 () Bool (= call_mesi.flby3.next call_mesi.shared_me.next))
(define-fun .def_1345 () Bool (= call_mesi.flby2.next call_mesi.exclusive_me.next))
(define-fun .def_1343 () Bool (= call_mesi.flby.next call_mesi.modified_me.next))
(define-fun .def_1339 () Bool (= call_mesi.ite32.next call_mesi.ite31.next))
(define-fun .def_1340 () Bool (or param_etat_me1.next .def_1339))
(define-fun .def_1336 () Bool (= call_mesi.ite25.next call_mesi.ite32.next))
(define-fun .def_1321 () Bool (not param_etat_me1.next))
(define-fun .def_1337 () Bool (or .def_1321 .def_1336))
(define-fun .def_1333 () Bool (= call_mesi.ite24.next call_mesi.ite23.next))
(define-fun .def_1334 () Bool (or param_etat_me1.next .def_1333))
(define-fun .def_1330 () Bool (= call_mesi.ite17.next call_mesi.ite24.next))
(define-fun .def_1331 () Bool (or .def_1321 .def_1330))
(define-fun .def_1327 () Bool (= call_mesi.ite16.next call_mesi.ite15.next))
(define-fun .def_1328 () Bool (or param_etat_me1.next .def_1327))
(define-fun .def_1324 () Bool (= call_mesi.ite9.next call_mesi.ite16.next))
(define-fun .def_1325 () Bool (or .def_1321 .def_1324))
(define-fun .def_1320 () Bool (= call_mesi.ite.next call_mesi.ite8.next))
(define-fun .def_1322 () Bool (or .def_1320 .def_1321))
(define-fun .def_1317 () Bool (= call_mesi.ite8.next call_mesi.ite7.next))
(define-fun .def_1319 () Bool (or .def_1317 param_etat_me1.next))
(define-fun .def_1323 () Bool (and .def_1319 .def_1322))
(define-fun .def_1326 () Bool (and .def_1323 .def_1325))
(define-fun .def_1329 () Bool (and .def_1326 .def_1328))
(define-fun .def_1332 () Bool (and .def_1329 .def_1331))
(define-fun .def_1335 () Bool (and .def_1332 .def_1334))
(define-fun .def_1338 () Bool (and .def_1335 .def_1337))
(define-fun .def_1341 () Bool (and .def_1338 .def_1340))
(define-fun .def_1315 () Bool (= env.next call_Sofar.Sofar.next))
(define-fun .def_1311 () Bool (= invalid_me.next call_mesi.invalid_me.next))
(define-fun .def_1306 () Int (+ invalid_me.next call_Abs4.ite.next))
(define-fun .def_1307 () Bool (= .def_1306 0))
(define-fun .def_1303 () Bool (<= 0 invalid_me.next))
(define-fun .def_1308 () Bool (or .def_1303 .def_1307))
(define-fun .def_1304 () Bool (not .def_1303))
(define-fun .def_1302 () Bool (= invalid_me.next call_Abs4.ite.next))
(define-fun .def_1305 () Bool (or .def_1302 .def_1304))
(define-fun .def_1309 () Bool (and .def_1305 .def_1308))
(define-fun .def_1312 () Bool (and .def_1309 .def_1311))
(define-fun .def_1297 () Bool (= shared_me.next call_mesi.shared_me.next))
(define-fun .def_1292 () Int (+ shared_me.next call_Abs3.ite.next))
(define-fun .def_1293 () Bool (= .def_1292 0))
(define-fun .def_1289 () Bool (<= 0 shared_me.next))
(define-fun .def_1294 () Bool (or .def_1289 .def_1293))
(define-fun .def_1290 () Bool (not .def_1289))
(define-fun .def_1288 () Bool (= shared_me.next call_Abs3.ite.next))
(define-fun .def_1291 () Bool (or .def_1288 .def_1290))
(define-fun .def_1295 () Bool (and .def_1291 .def_1294))
(define-fun .def_1298 () Bool (and .def_1295 .def_1297))
(define-fun .def_1283 () Bool (= exclusive_me.next call_mesi.exclusive_me.next))
(define-fun .def_1278 () Int (+ exclusive_me.next call_Abs2.ite.next))
(define-fun .def_1279 () Bool (= .def_1278 0))
(define-fun .def_1275 () Bool (<= 0 exclusive_me.next))
(define-fun .def_1280 () Bool (or .def_1275 .def_1279))
(define-fun .def_1276 () Bool (not .def_1275))
(define-fun .def_1274 () Bool (= exclusive_me.next call_Abs2.ite.next))
(define-fun .def_1277 () Bool (or .def_1274 .def_1276))
(define-fun .def_1281 () Bool (and .def_1277 .def_1280))
(define-fun .def_1284 () Bool (and .def_1281 .def_1283))
(define-fun .def_1269 () Bool (= modified_me.next call_mesi.modified_me.next))
(define-fun .def_1264 () Int (+ modified_me.next call_Abs.ite.next))
(define-fun .def_1265 () Bool (= .def_1264 0))
(define-fun .def_1261 () Bool (<= 0 modified_me.next))
(define-fun .def_1266 () Bool (or .def_1261 .def_1265))
(define-fun .def_1262 () Bool (not .def_1261))
(define-fun .def_1260 () Bool (= modified_me.next call_Abs.ite.next))
(define-fun .def_1263 () Bool (or .def_1260 .def_1262))
(define-fun .def_1267 () Bool (and .def_1263 .def_1266))
(define-fun .def_1270 () Bool (and .def_1267 .def_1269))
(define-fun .def_1251 () Int (+ call_Abs3.Abs.next call_Abs4.Abs.next))
(define-fun .def_1252 () Int (+ call_Abs2.Abs.next .def_1251))
(define-fun .def_1253 () Int (+ call_Abs.Abs.next .def_1252))
(define-fun .def_1254 () Bool (<= .def_1253 3))
(define-fun .def_1243 () Bool (not env.next))
(define-fun .def_1255 () Bool (or .def_1243 .def_1254))
(define-fun .def_1256 () Bool (= _OK_.next .def_1255))
(define-fun .def_1237 () Bool (= call_mesi.ite30.next call_mesi.ite31.next))
(define-fun .def_1238 () Bool (or param_etat_me2.next .def_1237))
(define-fun .def_1234 () Bool (= call_mesi.ite26.next call_mesi.ite31.next))
(define-fun .def_1216 () Bool (not param_etat_me2.next))
(define-fun .def_1235 () Bool (or .def_1216 .def_1234))
(define-fun .def_1230 () Bool (= call_mesi.ite22.next call_mesi.ite23.next))
(define-fun .def_1231 () Bool (or param_etat_me2.next .def_1230))
(define-fun .def_1227 () Bool (= call_mesi.ite18.next call_mesi.ite23.next))
(define-fun .def_1228 () Bool (or .def_1216 .def_1227))
(define-fun .def_1223 () Bool (= call_mesi.ite14.next call_mesi.ite15.next))
(define-fun .def_1224 () Bool (or param_etat_me2.next .def_1223))
(define-fun .def_1220 () Bool (= call_mesi.ite10.next call_mesi.ite15.next))
(define-fun .def_1221 () Bool (or .def_1216 .def_1220))
(define-fun .def_1215 () Bool (= call_mesi.ite2.next call_mesi.ite7.next))
(define-fun .def_1217 () Bool (or .def_1215 .def_1216))
(define-fun .def_1212 () Bool (= call_mesi.ite6.next call_mesi.ite7.next))
(define-fun .def_1214 () Bool (or .def_1212 param_etat_me2.next))
(define-fun .def_1218 () Bool (and .def_1214 .def_1217))
(define-fun .def_1222 () Bool (and .def_1218 .def_1221))
(define-fun .def_1225 () Bool (and .def_1222 .def_1224))
(define-fun .def_1229 () Bool (and .def_1225 .def_1228))
(define-fun .def_1232 () Bool (and .def_1229 .def_1231))
(define-fun .def_1236 () Bool (and .def_1232 .def_1235))
(define-fun .def_1239 () Bool (and .def_1236 .def_1238))
(define-fun .def_1208 () Bool (= call_mesi.ite29.next call_mesi.ite30.next))
(define-fun .def_1209 () Bool (or param_etat_me3.next .def_1208))
(define-fun .def_1205 () Bool (= call_mesi.ite27.next call_mesi.ite30.next))
(define-fun .def_1187 () Bool (not param_etat_me3.next))
(define-fun .def_1206 () Bool (or .def_1187 .def_1205))
(define-fun .def_1201 () Bool (= call_mesi.ite21.next call_mesi.ite22.next))
(define-fun .def_1202 () Bool (or param_etat_me3.next .def_1201))
(define-fun .def_1198 () Bool (= call_mesi.ite19.next call_mesi.ite22.next))
(define-fun .def_1199 () Bool (or .def_1187 .def_1198))
(define-fun .def_1194 () Bool (= call_mesi.ite13.next call_mesi.ite14.next))
(define-fun .def_1195 () Bool (or param_etat_me3.next .def_1194))
(define-fun .def_1191 () Bool (= call_mesi.ite11.next call_mesi.ite14.next))
(define-fun .def_1192 () Bool (or .def_1187 .def_1191))
(define-fun .def_1186 () Bool (= call_mesi.ite3.next call_mesi.ite6.next))
(define-fun .def_1188 () Bool (or .def_1186 .def_1187))
(define-fun .def_1183 () Bool (= call_mesi.ite5.next call_mesi.ite6.next))
(define-fun .def_1185 () Bool (or .def_1183 param_etat_me3.next))
(define-fun .def_1189 () Bool (and .def_1185 .def_1188))
(define-fun .def_1193 () Bool (and .def_1189 .def_1192))
(define-fun .def_1196 () Bool (and .def_1193 .def_1195))
(define-fun .def_1200 () Bool (and .def_1196 .def_1199))
(define-fun .def_1203 () Bool (and .def_1200 .def_1202))
(define-fun .def_1207 () Bool (and .def_1203 .def_1206))
(define-fun .def_1210 () Bool (and .def_1207 .def_1209))
(define-fun .def_1240 () Bool (and .def_1210 .def_1239))
(define-fun .def_1257 () Bool (and .def_1240 .def_1256))
(define-fun .def_1271 () Bool (and .def_1257 .def_1270))
(define-fun .def_1285 () Bool (and .def_1271 .def_1284))
(define-fun .def_1299 () Bool (and .def_1285 .def_1298))
(define-fun .def_1313 () Bool (and .def_1299 .def_1312))
(define-fun .def_1316 () Bool (and .def_1313 .def_1315))
(define-fun .def_1342 () Bool (and .def_1316 .def_1341))
(define-fun .def_1344 () Bool (and .def_1342 .def_1343))
(define-fun .def_1346 () Bool (and .def_1344 .def_1345))
(define-fun .def_1348 () Bool (and .def_1346 .def_1347))
(define-fun .def_1350 () Bool (and .def_1348 .def_1349))
(define-fun .def_1364 () Bool (and .def_1350 .def_1363))
(define-fun .def_1366 () Bool (and .def_1364 .def_1365))
(define-fun .def_1368 () Bool (and .def_1366 .def_1367))
(define-fun .def_1370 () Bool (and .def_1368 .def_1369))
(define-fun .def_1372 () Bool (and .def_1370 .def_1371))
(define-fun .def_1374 () Bool (and .def_1372 .def_1373))
(define-fun .def_913 () Bool (= call_Abs4.Abs call_Abs4.ite))
(define-fun .def_911 () Bool (= call_Abs3.Abs call_Abs3.ite))
(define-fun .def_909 () Bool (= call_Abs2.Abs call_Abs2.ite))
(define-fun .def_907 () Bool (= call_Abs.Abs call_Abs.ite))
(define-fun .def_905 () Bool (= call_Sofar.Sofar call_Sofar.flby))
(define-fun .def_898 () Bool (and param_etat_me3 param_etat_me4))
(define-fun .def_896 () Bool (and param_etat_me2 param_etat_me4))
(define-fun .def_894 () Bool (and param_etat_me3 param_etat_me2))
(define-fun .def_890 () Bool (and param_etat_me2 param_etat_me1))
(define-fun .def_891 () Bool (and param_etat_me1 .def_890))
(define-fun .def_892 () Bool (and param_etat_me3 .def_891))
(define-fun .def_889 () Bool (and param_etat_me1 param_etat_me4))
(define-fun .def_893 () Bool (or .def_889 .def_892))
(define-fun .def_895 () Bool (or .def_893 .def_894))
(define-fun .def_897 () Bool (or .def_895 .def_896))
(define-fun .def_899 () Bool (or .def_897 .def_898))
(define-fun .def_900 () Bool (not .def_899))
(define-fun .def_902 () Bool (= .def_900 call_excludes4.excludes))
(define-fun .def_886 () Bool (= call_mesi.invalid_me call_mesi.flby4))
(define-fun .def_883 () Bool (= call_mesi.shared_me call_mesi.flby3))
(define-fun .def_880 () Bool (= call_mesi.exclusive_me call_mesi.flby2))
(define-fun .def_877 () Bool (= call_mesi.modified_me call_mesi.flby))
(define-fun .def_872 () Bool (= call_mesi.ite31 call_mesi.ite32))
(define-fun .def_873 () Bool (or param_etat_me1 .def_872))
(define-fun .def_869 () Bool (= call_mesi.ite25 call_mesi.ite32))
(define-fun .def_848 () Bool (not param_etat_me1))
(define-fun .def_870 () Bool (or .def_848 .def_869))
(define-fun .def_864 () Bool (= call_mesi.ite23 call_mesi.ite24))
(define-fun .def_865 () Bool (or param_etat_me1 .def_864))
(define-fun .def_861 () Bool (= call_mesi.ite17 call_mesi.ite24))
(define-fun .def_862 () Bool (or .def_848 .def_861))
(define-fun .def_856 () Bool (= call_mesi.ite15 call_mesi.ite16))
(define-fun .def_857 () Bool (or param_etat_me1 .def_856))
(define-fun .def_853 () Bool (= call_mesi.ite16 call_mesi.ite9))
(define-fun .def_854 () Bool (or .def_848 .def_853))
(define-fun .def_847 () Bool (= call_mesi.ite8 call_mesi.ite))
(define-fun .def_849 () Bool (or .def_847 .def_848))
(define-fun .def_843 () Bool (= call_mesi.ite7 call_mesi.ite8))
(define-fun .def_845 () Bool (or .def_843 param_etat_me1))
(define-fun .def_850 () Bool (and .def_845 .def_849))
(define-fun .def_855 () Bool (and .def_850 .def_854))
(define-fun .def_858 () Bool (and .def_855 .def_857))
(define-fun .def_863 () Bool (and .def_858 .def_862))
(define-fun .def_866 () Bool (and .def_863 .def_865))
(define-fun .def_871 () Bool (and .def_866 .def_870))
(define-fun .def_874 () Bool (and .def_871 .def_873))
(define-fun .def_840 () Bool (= env call_Sofar.Sofar))
(define-fun .def_836 () Bool (= invalid_me call_mesi.invalid_me))
(define-fun .def_831 () Int (+ invalid_me call_Abs4.ite))
(define-fun .def_832 () Bool (= .def_831 0))
(define-fun .def_828 () Bool (<= 0 invalid_me))
(define-fun .def_833 () Bool (or .def_828 .def_832))
(define-fun .def_829 () Bool (not .def_828))
(define-fun .def_827 () Bool (= invalid_me call_Abs4.ite))
(define-fun .def_830 () Bool (or .def_827 .def_829))
(define-fun .def_834 () Bool (and .def_830 .def_833))
(define-fun .def_837 () Bool (and .def_834 .def_836))
(define-fun .def_822 () Bool (= shared_me call_mesi.shared_me))
(define-fun .def_817 () Int (+ shared_me call_Abs3.ite))
(define-fun .def_818 () Bool (= .def_817 0))
(define-fun .def_814 () Bool (<= 0 shared_me))
(define-fun .def_819 () Bool (or .def_814 .def_818))
(define-fun .def_815 () Bool (not .def_814))
(define-fun .def_813 () Bool (= shared_me call_Abs3.ite))
(define-fun .def_816 () Bool (or .def_813 .def_815))
(define-fun .def_820 () Bool (and .def_816 .def_819))
(define-fun .def_823 () Bool (and .def_820 .def_822))
(define-fun .def_808 () Bool (= exclusive_me call_mesi.exclusive_me))
(define-fun .def_803 () Int (+ exclusive_me call_Abs2.ite))
(define-fun .def_804 () Bool (= .def_803 0))
(define-fun .def_800 () Bool (<= 0 exclusive_me))
(define-fun .def_805 () Bool (or .def_800 .def_804))
(define-fun .def_801 () Bool (not .def_800))
(define-fun .def_799 () Bool (= exclusive_me call_Abs2.ite))
(define-fun .def_802 () Bool (or .def_799 .def_801))
(define-fun .def_806 () Bool (and .def_802 .def_805))
(define-fun .def_809 () Bool (and .def_806 .def_808))
(define-fun .def_794 () Bool (= modified_me call_mesi.modified_me))
(define-fun .def_789 () Int (+ modified_me call_Abs.ite))
(define-fun .def_790 () Bool (= .def_789 0))
(define-fun .def_786 () Bool (<= 0 modified_me))
(define-fun .def_791 () Bool (or .def_786 .def_790))
(define-fun .def_787 () Bool (not .def_786))
(define-fun .def_785 () Bool (= modified_me call_Abs.ite))
(define-fun .def_788 () Bool (or .def_785 .def_787))
(define-fun .def_792 () Bool (and .def_788 .def_791))
(define-fun .def_795 () Bool (and .def_792 .def_794))
(define-fun .def_776 () Int (+ call_Abs3.Abs call_Abs4.Abs))
(define-fun .def_777 () Int (+ call_Abs2.Abs .def_776))
(define-fun .def_778 () Int (+ call_Abs.Abs .def_777))
(define-fun .def_779 () Bool (<= .def_778 3))
(define-fun .def_768 () Bool (not env))
(define-fun .def_780 () Bool (or .def_768 .def_779))
(define-fun .def_781 () Bool (= _OK_ .def_780))
(define-fun .def_762 () Bool (= call_mesi.ite30 call_mesi.ite31))
(define-fun .def_763 () Bool (or param_etat_me2 .def_762))
(define-fun .def_759 () Bool (= call_mesi.ite26 call_mesi.ite31))
(define-fun .def_738 () Bool (not param_etat_me2))
(define-fun .def_760 () Bool (or .def_738 .def_759))
(define-fun .def_754 () Bool (= call_mesi.ite22 call_mesi.ite23))
(define-fun .def_755 () Bool (or param_etat_me2 .def_754))
(define-fun .def_751 () Bool (= call_mesi.ite18 call_mesi.ite23))
(define-fun .def_752 () Bool (or .def_738 .def_751))
(define-fun .def_746 () Bool (= call_mesi.ite14 call_mesi.ite15))
(define-fun .def_747 () Bool (or param_etat_me2 .def_746))
(define-fun .def_743 () Bool (= call_mesi.ite10 call_mesi.ite15))
(define-fun .def_744 () Bool (or .def_738 .def_743))
(define-fun .def_737 () Bool (= call_mesi.ite7 call_mesi.ite2))
(define-fun .def_739 () Bool (or .def_737 .def_738))
(define-fun .def_733 () Bool (= call_mesi.ite6 call_mesi.ite7))
(define-fun .def_735 () Bool (or .def_733 param_etat_me2))
(define-fun .def_740 () Bool (and .def_735 .def_739))
(define-fun .def_745 () Bool (and .def_740 .def_744))
(define-fun .def_748 () Bool (and .def_745 .def_747))
(define-fun .def_753 () Bool (and .def_748 .def_752))
(define-fun .def_756 () Bool (and .def_753 .def_755))
(define-fun .def_761 () Bool (and .def_756 .def_760))
(define-fun .def_764 () Bool (and .def_761 .def_763))
(define-fun .def_729 () Bool (= call_mesi.ite30 call_mesi.ite29))
(define-fun .def_730 () Bool (or param_etat_me3 .def_729))
(define-fun .def_725 () Bool (= call_mesi.ite27 call_mesi.ite30))
(define-fun .def_702 () Bool (not param_etat_me3))
(define-fun .def_726 () Bool (or .def_702 .def_725))
(define-fun .def_720 () Bool (= call_mesi.ite22 call_mesi.ite21))
(define-fun .def_721 () Bool (or param_etat_me3 .def_720))
(define-fun .def_716 () Bool (= call_mesi.ite22 call_mesi.ite19))
(define-fun .def_717 () Bool (or .def_702 .def_716))
(define-fun .def_711 () Bool (= call_mesi.ite14 call_mesi.ite13))
(define-fun .def_712 () Bool (or param_etat_me3 .def_711))
(define-fun .def_707 () Bool (= call_mesi.ite14 call_mesi.ite11))
(define-fun .def_708 () Bool (or .def_702 .def_707))
(define-fun .def_701 () Bool (= call_mesi.ite6 call_mesi.ite3))
(define-fun .def_703 () Bool (or .def_701 .def_702))
(define-fun .def_697 () Bool (= call_mesi.ite6 call_mesi.ite5))
(define-fun .def_699 () Bool (or .def_697 param_etat_me3))
(define-fun .def_704 () Bool (and .def_699 .def_703))
(define-fun .def_709 () Bool (and .def_704 .def_708))
(define-fun .def_713 () Bool (and .def_709 .def_712))
(define-fun .def_718 () Bool (and .def_713 .def_717))
(define-fun .def_722 () Bool (and .def_718 .def_721))
(define-fun .def_727 () Bool (and .def_722 .def_726))
(define-fun .def_731 () Bool (and .def_727 .def_730))
(define-fun .def_765 () Bool (and .def_731 .def_764))
(define-fun .def_782 () Bool (and .def_765 .def_781))
(define-fun .def_796 () Bool (and .def_782 .def_795))
(define-fun .def_810 () Bool (and .def_796 .def_809))
(define-fun .def_824 () Bool (and .def_810 .def_823))
(define-fun .def_838 () Bool (and .def_824 .def_837))
(define-fun .def_841 () Bool (and .def_838 .def_840))
(define-fun .def_875 () Bool (and .def_841 .def_874))
(define-fun .def_878 () Bool (and .def_875 .def_877))
(define-fun .def_881 () Bool (and .def_878 .def_880))
(define-fun .def_884 () Bool (and .def_881 .def_883))
(define-fun .def_887 () Bool (and .def_884 .def_886))
(define-fun .def_903 () Bool (and .def_887 .def_902))
(define-fun .def_906 () Bool (and .def_903 .def_905))
(define-fun .def_908 () Bool (and .def_906 .def_907))
(define-fun .def_910 () Bool (and .def_908 .def_909))
(define-fun .def_912 () Bool (and .def_910 .def_911))
(define-fun .def_914 () Bool (and .def_912 .def_913))
(define-fun .def_1375 () Bool (and .def_914 .def_1374))
(define-fun .def_1178 () Bool (and call_Sofar.Sofar call_excludes4.excludes.next))
(define-fun .def_1180 () Bool (= .def_1178 call_Sofar.flby.next))
(define-fun .def_1175 () Bool (= call_mesi.ite32.next call_mesi.flby4.next))
(define-fun .def_1171 () Bool (= call_mesi.ite24.next call_mesi.flby3.next))
(define-fun .def_1167 () Bool (= call_mesi.ite16.next call_mesi.flby2.next))
(define-fun .def_1163 () Bool (= call_mesi.ite8.next call_mesi.flby.next))
(define-fun .def_1131 () Bool (<= 1 call_mesi.invalid_me))
(define-fun .def_1158 () Bool (= call_mesi.garde_me4.next .def_1131))
(define-fun .def_1155 () Bool (= call_mesi.ite20.next 0))
(define-fun .def_1034 () Bool (not call_mesi.garde_me4.next))
(define-fun .def_1156 () Bool (or .def_1034 .def_1155))
(define-fun .def_1152 () Bool (= call_mesi.ite4.next 0))
(define-fun .def_1153 () Bool (or .def_1034 .def_1152))
(define-fun .def_1150 () Bool (= call_mesi.ite12.next 1))
(define-fun .def_1151 () Bool (or .def_1034 .def_1150))
(define-fun .def_1154 () Bool (and .def_1151 .def_1153))
(define-fun .def_1157 () Bool (and .def_1154 .def_1156))
(define-fun .def_1159 () Bool (and .def_1157 .def_1158))
(define-fun .def_1146 () Bool (<= 1 call_mesi.shared_me))
(define-fun .def_1147 () Bool (= call_mesi.garde_me3.next .def_1146))
(define-fun .def_1143 () Bool (= call_mesi.ite19.next 0))
(define-fun .def_1020 () Bool (not call_mesi.garde_me3.next))
(define-fun .def_1144 () Bool (or .def_1020 .def_1143))
(define-fun .def_1140 () Bool (= call_mesi.ite3.next 0))
(define-fun .def_1141 () Bool (or .def_1020 .def_1140))
(define-fun .def_1138 () Bool (= call_mesi.ite11.next 1))
(define-fun .def_1139 () Bool (or .def_1020 .def_1138))
(define-fun .def_1142 () Bool (and .def_1139 .def_1141))
(define-fun .def_1145 () Bool (and .def_1142 .def_1144))
(define-fun .def_1148 () Bool (and .def_1145 .def_1147))
(define-fun .def_1135 () Bool (<= 1 call_mesi.exclusive_me))
(define-fun .def_1136 () Bool (= call_mesi.garde_me2.next .def_1135))
(define-fun .def_1132 () Bool (= call_mesi.garde_me1.next .def_1131))
(define-fun .def_1128 () Bool (= call_mesi.ite.next 0))
(define-fun .def_1006 () Bool (not call_mesi.garde_me1.next))
(define-fun .def_1129 () Bool (or .def_1006 .def_1128))
(define-fun .def_1126 () Bool (= call_mesi.ite9.next 0))
(define-fun .def_1127 () Bool (or .def_1006 .def_1126))
(define-fun .def_1130 () Bool (and .def_1127 .def_1129))
(define-fun .def_1133 () Bool (and .def_1130 .def_1132))
(define-fun .def_1122 () Bool (= call_mesi.invalid_me call_mesi.ite28.next))
(define-fun .def_1123 () Bool (or call_mesi.garde_me4.next .def_1122))
(define-fun .def_1119 () Bool (= call_mesi.invalid_me call_mesi.ite27.next))
(define-fun .def_1120 () Bool (or call_mesi.garde_me3.next .def_1119))
(define-fun .def_1114 () Bool (= call_mesi.invalid_me call_mesi.ite26.next))
(define-fun .def_1117 () Bool (or call_mesi.garde_me2.next .def_1114))
(define-fun .def_977 () Bool (not call_mesi.garde_me2.next))
(define-fun .def_1115 () Bool (or .def_977 .def_1114))
(define-fun .def_1108 () Int (* (- 1) call_mesi.ite25.next))
(define-fun .def_1109 () Int (+ call_mesi.invalid_me .def_1108))
(define-fun .def_1110 () Bool (= .def_1109 1))
(define-fun .def_1111 () Bool (or .def_1006 .def_1110))
(define-fun .def_1106 () Bool (= call_mesi.invalid_me call_mesi.ite25.next))
(define-fun .def_1107 () Bool (or call_mesi.garde_me1.next .def_1106))
(define-fun .def_1112 () Bool (and .def_1107 .def_1111))
(define-fun .def_1116 () Bool (and .def_1112 .def_1115))
(define-fun .def_1118 () Bool (and .def_1116 .def_1117))
(define-fun .def_1121 () Bool (and .def_1118 .def_1120))
(define-fun .def_1124 () Bool (and .def_1121 .def_1123))
(define-fun .def_1101 () Bool (= call_mesi.shared_me call_mesi.ite20.next))
(define-fun .def_1102 () Bool (or call_mesi.garde_me4.next .def_1101))
(define-fun .def_1098 () Bool (= call_mesi.shared_me call_mesi.ite19.next))
(define-fun .def_1099 () Bool (or call_mesi.garde_me3.next .def_1098))
(define-fun .def_1090 () Bool (= call_mesi.shared_me call_mesi.ite18.next))
(define-fun .def_1095 () Bool (or call_mesi.garde_me2.next .def_1090))
(define-fun .def_1092 () Bool (= call_mesi.shared_me call_mesi.ite17.next))
(define-fun .def_1093 () Bool (or call_mesi.garde_me1.next .def_1092))
(define-fun .def_1091 () Bool (or .def_977 .def_1090))
(define-fun .def_1094 () Bool (and .def_1091 .def_1093))
(define-fun .def_1096 () Bool (and .def_1094 .def_1095))
(define-fun .def_1100 () Bool (and .def_1096 .def_1099))
(define-fun .def_1103 () Bool (and .def_1100 .def_1102))
(define-fun .def_1085 () Bool (= call_mesi.exclusive_me call_mesi.ite12.next))
(define-fun .def_1086 () Bool (or call_mesi.garde_me4.next .def_1085))
(define-fun .def_1082 () Bool (= call_mesi.exclusive_me call_mesi.ite11.next))
(define-fun .def_1083 () Bool (or call_mesi.garde_me3.next .def_1082))
(define-fun .def_1078 () Bool (= call_mesi.exclusive_me call_mesi.ite10.next))
(define-fun .def_1079 () Bool (or call_mesi.garde_me2.next .def_1078))
(define-fun .def_1075 () Bool (= call_mesi.exclusive_me call_mesi.ite9.next))
(define-fun .def_1076 () Bool (or call_mesi.garde_me1.next .def_1075))
(define-fun .def_1070 () Int (* (- 1) call_mesi.ite10.next))
(define-fun .def_1071 () Int (+ call_mesi.exclusive_me .def_1070))
(define-fun .def_1072 () Bool (= .def_1071 1))
(define-fun .def_1073 () Bool (or .def_977 .def_1072))
(define-fun .def_1077 () Bool (and .def_1073 .def_1076))
(define-fun .def_1080 () Bool (and .def_1077 .def_1079))
(define-fun .def_1084 () Bool (and .def_1080 .def_1083))
(define-fun .def_1087 () Bool (and .def_1084 .def_1086))
(define-fun .def_1065 () Bool (= call_mesi.invalid_me call_mesi.ite29.next))
(define-fun .def_1066 () Bool (or param_etat_me4.next .def_1065))
(define-fun .def_1062 () Bool (= call_mesi.ite28.next call_mesi.ite29.next))
(define-fun .def_1042 () Bool (not param_etat_me4.next))
(define-fun .def_1063 () Bool (or .def_1042 .def_1062))
(define-fun .def_1058 () Bool (= call_mesi.shared_me call_mesi.ite21.next))
(define-fun .def_1059 () Bool (or param_etat_me4.next .def_1058))
(define-fun .def_1055 () Bool (= call_mesi.ite20.next call_mesi.ite21.next))
(define-fun .def_1056 () Bool (or .def_1042 .def_1055))
(define-fun .def_1050 () Bool (= call_mesi.exclusive_me call_mesi.ite13.next))
(define-fun .def_1051 () Bool (or param_etat_me4.next .def_1050))
(define-fun .def_1047 () Bool (= call_mesi.ite12.next call_mesi.ite13.next))
(define-fun .def_1048 () Bool (or .def_1042 .def_1047))
(define-fun .def_1041 () Bool (= call_mesi.ite4.next call_mesi.ite5.next))
(define-fun .def_1043 () Bool (or .def_1041 .def_1042))
(define-fun .def_1038 () Bool (= call_mesi.modified_me call_mesi.ite5.next))
(define-fun .def_1040 () Bool (or .def_1038 param_etat_me4.next))
(define-fun .def_1044 () Bool (and .def_1040 .def_1043))
(define-fun .def_1049 () Bool (and .def_1044 .def_1048))
(define-fun .def_1052 () Bool (and .def_1049 .def_1051))
(define-fun .def_1057 () Bool (and .def_1052 .def_1056))
(define-fun .def_1060 () Bool (and .def_1057 .def_1059))
(define-fun .def_1064 () Bool (and .def_1060 .def_1063))
(define-fun .def_1067 () Bool (and .def_1064 .def_1066))
(define-fun .def_1024 () Int (* (- 1) call_mesi.ite28.next))
(define-fun .def_1029 () Int (+ call_mesi.invalid_me .def_1024))
(define-fun .def_1030 () Int (+ call_mesi.shared_me .def_1029))
(define-fun .def_1031 () Int (+ call_mesi.exclusive_me .def_1030))
(define-fun .def_1032 () Int (+ call_mesi.modified_me .def_1031))
(define-fun .def_1033 () Bool (= .def_1032 1))
(define-fun .def_1035 () Bool (or .def_1033 .def_1034))
(define-fun .def_1010 () Int (* (- 1) call_mesi.ite27.next))
(define-fun .def_1015 () Int (+ call_mesi.invalid_me .def_1010))
(define-fun .def_1016 () Int (+ call_mesi.shared_me .def_1015))
(define-fun .def_1017 () Int (+ call_mesi.exclusive_me .def_1016))
(define-fun .def_1018 () Int (+ call_mesi.modified_me .def_1017))
(define-fun .def_1019 () Bool (= .def_1018 1))
(define-fun .def_1021 () Bool (or .def_1019 .def_1020))
(define-fun .def_998 () Int (* (- 1) call_mesi.ite17.next))
(define-fun .def_1002 () Int (+ call_mesi.shared_me .def_998))
(define-fun .def_1003 () Int (+ call_mesi.exclusive_me .def_1002))
(define-fun .def_1004 () Int (+ call_mesi.modified_me .def_1003))
(define-fun .def_1005 () Bool (= .def_1004 0))
(define-fun .def_1007 () Bool (or .def_1005 .def_1006))
(define-fun .def_993 () Bool (= call_mesi.modified_me call_mesi.ite4.next))
(define-fun .def_995 () Bool (or .def_993 call_mesi.garde_me4.next))
(define-fun .def_988 () Bool (= call_mesi.modified_me call_mesi.ite3.next))
(define-fun .def_990 () Bool (or .def_988 call_mesi.garde_me3.next))
(define-fun .def_984 () Bool (= call_mesi.modified_me call_mesi.ite2.next))
(define-fun .def_985 () Bool (or call_mesi.garde_me2.next .def_984))
(define-fun .def_980 () Bool (= call_mesi.modified_me call_mesi.ite.next))
(define-fun .def_982 () Bool (or .def_980 call_mesi.garde_me1.next))
(define-fun .def_973 () Int (* (- 1) call_mesi.ite2.next))
(define-fun .def_974 () Int (+ call_mesi.modified_me .def_973))
(define-fun .def_975 () Bool (= .def_974 1))
(define-fun .def_978 () Bool (or .def_975 .def_977))
(define-fun .def_983 () Bool (and .def_978 .def_982))
(define-fun .def_986 () Bool (and .def_983 .def_985))
(define-fun .def_991 () Bool (and .def_986 .def_990))
(define-fun .def_996 () Bool (and .def_991 .def_995))
(define-fun .def_1008 () Bool (and .def_996 .def_1007))
(define-fun .def_1022 () Bool (and .def_1008 .def_1021))
(define-fun .def_1036 () Bool (and .def_1022 .def_1035))
(define-fun .def_1068 () Bool (and .def_1036 .def_1067))
(define-fun .def_1088 () Bool (and .def_1068 .def_1087))
(define-fun .def_1104 () Bool (and .def_1088 .def_1103))
(define-fun .def_1125 () Bool (and .def_1104 .def_1124))
(define-fun .def_1134 () Bool (and .def_1125 .def_1133))
(define-fun .def_1137 () Bool (and .def_1134 .def_1136))
(define-fun .def_1149 () Bool (and .def_1137 .def_1148))
(define-fun .def_1160 () Bool (and .def_1149 .def_1159))
(define-fun .def_1164 () Bool (and .def_1160 .def_1163))
(define-fun .def_1168 () Bool (and .def_1164 .def_1167))
(define-fun .def_1172 () Bool (and .def_1168 .def_1171))
(define-fun .def_1176 () Bool (and .def_1172 .def_1175))
(define-fun .def_1181 () Bool (and .def_1176 .def_1180))
(define-fun .def_1376 () Bool (and .def_1181 .def_1375))
(assert .def_1376)
